
Welcome to IBM(R) ILOG(R) CPLEX(R) Interactive Optimizer 22.1.1.0
  with Simplex, Mixed Integer & Barrier Optimizers
5725-A06 5725-A29 5724-Y48 5724-Y49 5724-Y54 5724-Y55 5655-Y21
Copyright IBM Corp. 1988, 2022.  All Rights Reserved.

Type 'help' for a list of available commands.
Type 'help' followed by a command name for more
information on commands.

CPLEX> Selected objective sense:  MINIMIZE
Selected objective  name:  00000000
Selected RHS        name:  RHS1
Selected bound      name:  BOUND
Problem 'ee.mps' read.
Read time = 0.03 sec. (3.14 ticks)
CPLEX> New value for time limit in seconds: 7200
CPLEX> New value for parallel optimization mode: -1
CPLEX> New value for default parallel thread count: 40
CPLEX> New value for mixed integer optimality gap tolerance: 1e-13
CPLEX> Version identifier: 22.1.1.0 | 2022-11-28 | 9160aff4d
CPXPARAM_Threads                                 40
CPXPARAM_Parallel                                -1
CPXPARAM_TimeLimit                               7200
CPXPARAM_MIP_Tolerances_MIPGap                   1e-13
Found incumbent of value 0.000000 after 0.00 sec. (0.31 ticks)
Tried aggregator 2 times.
MIP Presolve eliminated 179 rows and 2745 columns.
MIP Presolve modified 5862 coefficients.
Aggregator did 713 substitutions.
Reduced MIP has 3624 rows, 7739 columns, and 28645 nonzeros.
Reduced MIP has 7739 binaries, 0 generals, 0 SOSs, and 0 indicators.
Presolve time = 0.07 sec. (68.57 ticks)
Probing time = 0.03 sec. (5.89 ticks)
Tried aggregator 1 time.
Detecting symmetries...
Reduced MIP has 3624 rows, 7739 columns, and 28645 nonzeros.
Reduced MIP has 7739 binaries, 0 generals, 0 SOSs, and 0 indicators.
Presolve time = 0.02 sec. (21.84 ticks)
Probing time = 0.02 sec. (5.66 ticks)
Clique table members: 18552.
MIP emphasis: balance optimality and feasibility.
MIP search method: dynamic search.
Parallel mode: opportunistic, using up to 40 threads.
Root relaxation solution time = 0.13 sec. (112.31 ticks)

        Nodes                                         Cuts/
   Node  Left     Objective  IInf  Best Integer    Best Bound    ItCnt     Gap

*     0+    0                            0.0000  -1.31000e+13              --- 
*     0+    0                      -4.40000e+12  -1.31000e+13           197.73%
*     0+    0                      -6.60000e+12  -1.31000e+13            98.48%
      0     0  -1.30900e+13    33  -6.60000e+12  -1.30900e+13     2550   98.33%
*     0+    0                      -1.30900e+13  -1.30900e+13             0.00%
*     0+    0                      -1.30900e+13  -1.30900e+13             0.00%
      0     0  -1.30900e+13   108  -1.30900e+13      Cuts: 48     2792    0.00%
*     0+    0                      -1.30900e+13  -1.30900e+13             0.00%
      0     0  -1.30900e+13   153  -1.30900e+13      Cuts: 69     3099    0.00%
*     0+    0                      -1.30900e+13  -1.30900e+13             0.00%
      0     2  -1.30900e+13   153  -1.30900e+13  -1.30900e+13     3099    0.00%
Elapsed time = 1.88 sec. (1124.77 ticks, tree = 0.02 MB, solutions = 7)
*   254    94      integral     0  -1.30900e+13  -1.30900e+13    15672    0.00%
    499    85        cutoff        -1.30900e+13  -1.30900e+13    11553    0.00%
   1289   239  -1.30900e+13   117  -1.30900e+13  -1.30900e+13    62186    0.00%
   2106   250  -1.30900e+13   150  -1.30900e+13  -1.30900e+13    66763    0.00%
   2880   731  -1.30900e+13   159  -1.30900e+13  -1.30900e+13   166878    0.00%
   3570  1143        cutoff        -1.30900e+13  -1.30900e+13   234657    0.00%
   4388   715  -1.30900e+13    79  -1.30900e+13  -1.30900e+13   160323    0.00%
   5268  1773  -1.30900e+13    64  -1.30900e+13  -1.30900e+13   363211    0.00%
   6102  1495  -1.30900e+13    52  -1.30900e+13  -1.30900e+13   309658    0.00%
   6858  1425  -1.30900e+13   197  -1.30900e+13  -1.30900e+13   291320    0.00%
   9286  1858        cutoff        -1.30900e+13  -1.30900e+13   398643    0.00%
Elapsed time = 8.43 sec. (4226.51 ticks, tree = 23.50 MB, solutions = 13)
  11004  2210        cutoff        -1.30900e+13  -1.30900e+13   545251    0.00%
  11861  2498  -1.30900e+13    70  -1.30900e+13  -1.30900e+13   701743    0.00%

Performing restart 1

Repeating presolve.
Tried aggregator 2 times.
MIP Presolve eliminated 198 rows and 1307 columns.
MIP Presolve modified 1621 coefficients.
Aggregator did 317 substitutions.
Reduced MIP has 3057 rows, 6069 columns, and 22311 nonzeros.
Reduced MIP has 6069 binaries, 0 generals, 0 SOSs, and 0 indicators.
Presolve time = 0.08 sec. (76.55 ticks)
Tried aggregator 2 times.
MIP Presolve eliminated 55 rows and 166 columns.
Aggregator did 73 substitutions.
Reduced MIP has 2929 rows, 5803 columns, and 21422 nonzeros.
Reduced MIP has 5803 binaries, 0 generals, 0 SOSs, and 0 indicators.
Presolve time = 0.05 sec. (35.81 ticks)
Tried aggregator 1 time.
Reduced MIP has 2929 rows, 5803 columns, and 21422 nonzeros.
Reduced MIP has 5803 binaries, 0 generals, 0 SOSs, and 0 indicators.
Presolve time = 0.03 sec. (16.06 ticks)
Represolve time = 0.38 sec. (217.84 ticks)
  12312     0  -1.30900e+13   283  -1.30900e+13      Cuts: 35   814394    0.00%
  12312     0  -1.30900e+13   225  -1.30900e+13      Cuts: 29   814803    0.00%
  12312     0  -1.30900e+13   288  -1.30900e+13      Cuts: 13   815075    0.00%
  12312     0  -1.30900e+13   224  -1.30900e+13       Cuts: 6   815113    0.00%
  12312     0  -1.30900e+13   361  -1.30900e+13      Cuts: 21   815376    0.00%
  12312     0  -1.30900e+13   291  -1.30900e+13      Cuts: 22   815513    0.00%
  12312     0  -1.30900e+13   254  -1.30900e+13      Cuts: 16   815797    0.00%
  12312     0  -1.30900e+13   362  -1.30900e+13  ZeroHalf: 18   816124    0.00%
  12312     0  -1.30900e+13   261  -1.30900e+13      Cuts: 14   816355    0.00%
  12312     0  -1.30900e+13   315  -1.30900e+13      Cuts: 17   816567    0.00%
  12312     0  -1.30900e+13   288  -1.30900e+13      Cuts: 26   816868    0.00%
  12312     0  -1.30900e+13   367  -1.30900e+13      Cuts: 19   817086    0.00%
  12312     0  -1.30900e+13   350  -1.30900e+13      Cuts: 26   817287    0.00%
  12312     0  -1.30900e+13   384  -1.30900e+13      Cuts: 17   817492    0.00%
  12312     7        cutoff        -1.30900e+13  -1.30900e+13   822976    0.00%
  12750    12  -1.30900e+13   244  -1.30900e+13  -1.30900e+13   833721    0.00%
  12840     6  -1.30900e+13   319  -1.30900e+13  -1.30900e+13   829879    0.00%

GUB cover cuts applied:  1
Clique cuts applied:  8
Cover cuts applied:  278
Flow cuts applied:  1
Mixed integer rounding cuts applied:  22
Zero-half cuts applied:  67
Lift and project cuts applied:  1
Gomory fractional cuts applied:  10

Root node processing (before b&c):
  Real time             =    1.28 sec. (1122.96 ticks)
Parallel b&c, 40 threads:
  Real time             =   17.57 sec. (11605.54 ticks)
  Sync time (average)   =    3.82 sec.
  Wait time (average)   =    0.16 sec.
                          ------------
Total (root+branch&cut) =   18.85 sec. (12728.50 ticks)

Solution pool: 13 solutions saved.

MIP - Integer optimal solution:  Objective = -1.3089999790e+13
Solution time =   18.98 sec.  Iterations = 843577  Nodes = 12845
Deterministic time = 12728.53 ticks  (670.46 ticks/sec)

CPLEX> Solution 'p14' written to file 'ee.sol'.
CPLEX> 